(set-info :smt-lib-version 2.6)
(set-logic UF)
(set-info :source |Benchmarks from the paper: "Extending Sledgehammer with SMT Solvers" by Jasmin Blanchette, Sascha Bohme, and Lawrence C. Paulson, CADE 2011.  Translated to SMT2 by Andrew Reynolds and Morgan Deters.|)
(set-info :category "industrial")
(set-info :status unknown)
(declare-sort S1 0)
(declare-sort S2 0)
(declare-sort S3 0)
(declare-sort S4 0)
(declare-sort S5 0)
(declare-sort S6 0)
(declare-sort S7 0)
(declare-sort S8 0)
(declare-sort S9 0)
(declare-sort S10 0)
(declare-sort S11 0)
(declare-sort S12 0)
(declare-sort S13 0)
(declare-sort S14 0)
(declare-sort S15 0)
(declare-sort S16 0)
(declare-sort S17 0)
(declare-sort S18 0)
(declare-sort S19 0)
(declare-sort S20 0)
(declare-sort S21 0)
(declare-sort S22 0)
(declare-sort S23 0)
(declare-sort S24 0)
(declare-sort S25 0)
(declare-sort S26 0)
(declare-sort S27 0)
(declare-fun f1 () S1)
(declare-fun f2 () S1)
(declare-fun f3 (S3 S2) S1)
(declare-fun f4 () S3)
(declare-fun f5 (S4 S3) S3)
(declare-fun f6 (S5 S3) S4)
(declare-fun f7 () S5)
(declare-fun f8 () S3)
(declare-fun f9 () S4)
(declare-fun f10 () S3)
(declare-fun f11 (S6 S2) S3)
(declare-fun f12 () S6)
(declare-fun f13 () S2)
(declare-fun f14 (S7 S3) S1)
(declare-fun f15 (S8 S2) S7)
(declare-fun f16 () S8)
(declare-fun f17 () S2)
(declare-fun f18 () S1)
(declare-fun f19 () S5)
(declare-fun f20 () S5)
(declare-fun f21 (S9 S3) S7)
(declare-fun f22 () S9)
(declare-fun f23 (S10 S1) S1)
(declare-fun f24 (S11 S1) S10)
(declare-fun f25 () S11)
(declare-fun f26 (S13 S12) S1)
(declare-fun f27 (S14 S12) S13)
(declare-fun f28 () S14)
(declare-fun f29 () S12)
(declare-fun f30 (S15 S2) S2)
(declare-fun f31 (S16 S2) S15)
(declare-fun f32 () S16)
(declare-fun f33 () S16)
(declare-fun f34 () S8)
(declare-fun f35 () S4)
(declare-fun f36 (S17 S2) S12)
(declare-fun f37 (S18 S12) S2)
(declare-fun f38 (S19 S1) S2)
(declare-fun f39 (S20 S3) S2)
(declare-fun f40 (S21 S12) S12)
(declare-fun f41 () S4)
(declare-fun f42 () S6)
(declare-fun f43 (S22 S18) S1)
(declare-fun f44 () S22)
(declare-fun f45 (S23 S19) S1)
(declare-fun f46 () S23)
(declare-fun f47 (S24 S20) S1)
(declare-fun f48 () S24)
(declare-fun f49 (S25 S17) S1)
(declare-fun f50 () S25)
(declare-fun f51 () S7)
(declare-fun f52 (S26 S6) S1)
(declare-fun f53 () S26)
(declare-fun f54 (S27 S3) S12)
(declare-fun f55 () S27)
(assert (not (= f1 f2)))
(assert (forall ((?v0 S2)) (= (= (f3 f4 ?v0) f1) true)))
(assert (not (exists ((?v0 S2)) (= (f3 (f5 (f6 f7 f8) (f5 f9 f10)) ?v0) f1))))
(assert (exists ((?v0 S2)) (forall ((?v1 S2)) (=> (= (f3 f10 ?v1) f1) (= (f3 (f11 f12 ?v1) ?v0) f1)))))
(assert (exists ((?v0 S2)) (forall ((?v1 S2)) (=> (= (f3 f10 ?v1) f1) (= (f3 (f11 f12 ?v1) ?v0) f1)))))
(assert (= (f3 f10 f13) f1))
(assert (exists ((?v0 S2)) (= (f3 f10 ?v0) f1)))
(assert (exists ((?v0 S2)) (= (f14 (f15 f16 ?v0) (f5 f9 f10)) f1)))
(assert (forall ((?v0 S2)) (=> (= (f3 f10 ?v0) f1) (= (f3 (f11 f12 ?v0) f17) f1))))
(assert (=> (forall ((?v0 S2) (?v1 S2)) (=> (= (f3 f10 ?v0) f1) (=> (forall ((?v2 S2)) (=> (= (f3 f10 ?v2) f1) (= (f3 (f11 f12 ?v2) ?v1) f1))) false))) false))
(assert (forall ((?v0 S2)) (= (f3 f8 ?v0) f1)))
(assert (forall ((?v0 S2)) (= (f14 (f15 f16 ?v0) f8) f1)))
(assert (forall ((?v0 S2)) (= (= (f14 (f15 f16 ?v0) f8) f1) true)))
(assert (forall ((?v0 S2)) (= (= (f3 f8 ?v0) f1) (= f18 f1))))
(assert (forall ((?v0 S3) (?v1 S3) (?v2 S2)) (=> (= (f3 (f5 (f6 f7 ?v0) ?v1) ?v2) f1) (= (f14 (f15 f16 ?v2) ?v0) f1))))
(assert (= f8 (f5 f9 f4)))
(assert (forall ((?v0 S3) (?v1 S3)) (= (f5 (f6 f19 ?v0) ?v1) (f5 f9 (f5 (f6 f7 ?v0) ?v1)))))
(assert (forall ((?v0 S3)) (=> (and (exists ((?v1 S2)) (= (f14 (f15 f16 ?v1) ?v0) f1)) (exists ((?v1 S2)) (= (f3 (f5 (f6 f7 f8) ?v0) ?v1) f1))) (exists ((?v1 S2)) (= (f3 (f5 (f6 f20 f8) ?v0) ?v1) f1)))))
(assert (forall ((?v0 S3)) (=> (exists ((?v1 S2)) (= (f14 (f15 f16 ?v1) ?v0) f1)) (=> (exists ((?v1 S2)) (= (f3 (f5 (f6 f7 f8) ?v0) ?v1) f1)) (exists ((?v1 S2)) (= (f3 (f5 (f6 f20 f8) ?v0) ?v1) f1))))))
(assert (forall ((?v0 S3)) (not (= (f14 (f21 f22 f8) ?v0) f1))))
(assert (forall ((?v0 S1)) (not (= (f23 (f24 f25 f18) ?v0) f1))))
(assert (forall ((?v0 S12)) (not (= (f26 (f27 f28 f29) ?v0) f1))))
(assert (forall ((?v0 S3)) (= (not (= ?v0 f8)) (= (f14 (f21 f22 ?v0) f8) f1))))
(assert (forall ((?v0 S1)) (= (not (= (= ?v0 f1) (= f18 f1))) (= (f23 (f24 f25 ?v0) f18) f1))))
(assert (forall ((?v0 S12)) (= (not (= ?v0 f29)) (= (f26 (f27 f28 ?v0) f29) f1))))
(assert (forall ((?v0 S2)) (not (= (f3 (f11 f12 ?v0) ?v0) f1))))
(assert (forall ((?v0 S12)) (not (= (f26 (f27 f28 ?v0) ?v0) f1))))
(assert (forall ((?v0 S1)) (not (= (f23 (f24 f25 ?v0) ?v0) f1))))
(assert (forall ((?v0 S3)) (not (= (f14 (f21 f22 ?v0) ?v0) f1))))
(assert (forall ((?v0 S2) (?v1 S2)) (= (not (= ?v0 ?v1)) (or (= (f3 (f11 f12 ?v0) ?v1) f1) (= (f3 (f11 f12 ?v1) ?v0) f1)))))
(assert (forall ((?v0 S2) (?v1 S2)) (= (not (= (f3 (f11 f12 ?v0) ?v1) f1)) (or (= (f3 (f11 f12 ?v1) ?v0) f1) (= ?v0 ?v1)))))
(assert (forall ((?v0 S2) (?v1 S2)) (or (= (f3 (f11 f12 ?v0) ?v1) f1) (or (= ?v0 ?v1) (= (f3 (f11 f12 ?v1) ?v0) f1)))))
(assert (forall ((?v0 S2) (?v1 S2) (?v2 S2)) (let ((?v_0 (f11 f12 ?v0))) (= (= (f3 ?v_0 (f30 (f31 f32 ?v1) ?v2)) f1) (or (= (f3 ?v_0 ?v1) f1) (= (f3 ?v_0 ?v2) f1))))))
(assert (forall ((?v0 S2) (?v1 S2) (?v2 S2)) (let ((?v_0 (f11 f12 ?v0))) (= (= (f3 ?v_0 (f30 (f31 f33 ?v1) ?v2)) f1) (and (= (f3 ?v_0 ?v1) f1) (= (f3 ?v_0 ?v2) f1))))))
(assert (forall ((?v0 S2) (?v1 S2) (?v2 S2)) (= (= (f3 (f11 f12 (f30 (f31 f32 ?v0) ?v1)) ?v2) f1) (and (= (f3 (f11 f12 ?v0) ?v2) f1) (= (f3 (f11 f12 ?v1) ?v2) f1)))))
(assert (forall ((?v0 S2) (?v1 S2) (?v2 S2)) (= (= (f3 (f11 f12 (f30 (f31 f33 ?v0) ?v1)) ?v2) f1) (or (= (f3 (f11 f12 ?v0) ?v2) f1) (= (f3 (f11 f12 ?v1) ?v2) f1)))))
(assert (forall ((?v0 S2) (?v1 S2)) (=> (not (= (f3 (f11 f12 ?v0) ?v1) f1)) (= (not (= (f3 (f11 f12 ?v1) ?v0) f1)) (= ?v1 ?v0)))))
(assert (forall ((?v0 S2) (?v1 S2)) (=> (not (= ?v0 ?v1)) (=> (=> (= (f3 (f11 f12 ?v0) ?v1) f1) false) (=> (=> (= (f3 (f11 f12 ?v1) ?v0) f1) false) false)))))
(assert (forall ((?v0 S2) (?v1 S2)) (=> (= (f3 (f11 f12 ?v0) ?v1) f1) (not (= ?v0 ?v1)))))
(assert (forall ((?v0 S12) (?v1 S12)) (=> (= (f26 (f27 f28 ?v0) ?v1) f1) (not (= ?v0 ?v1)))))
(assert (forall ((?v0 S1) (?v1 S1)) (=> (= (f23 (f24 f25 ?v0) ?v1) f1) (not (= (= ?v0 f1) (= ?v1 f1))))))
(assert (forall ((?v0 S3) (?v1 S3)) (=> (= (f14 (f21 f22 ?v0) ?v1) f1) (not (= ?v0 ?v1)))))
(assert (forall ((?v0 S2) (?v1 S2)) (=> (= (f3 (f11 f12 ?v0) ?v1) f1) (not (= (f3 (f11 f12 ?v1) ?v0) f1)))))
(assert (forall ((?v0 S12) (?v1 S12)) (=> (= (f26 (f27 f28 ?v0) ?v1) f1) (not (= (f26 (f27 f28 ?v1) ?v0) f1)))))
(assert (forall ((?v0 S1) (?v1 S1)) (=> (= (f23 (f24 f25 ?v0) ?v1) f1) (not (= (f23 (f24 f25 ?v1) ?v0) f1)))))
(assert (forall ((?v0 S3) (?v1 S3)) (=> (= (f14 (f21 f22 ?v0) ?v1) f1) (not (= (f14 (f21 f22 ?v1) ?v0) f1)))))
(assert (forall ((?v0 S2) (?v1 S2)) (=> (= (f3 (f11 f12 ?v0) ?v1) f1) (= (not (= (f3 (f11 f12 ?v1) ?v0) f1)) true))))
(assert (forall ((?v0 S12) (?v1 S12)) (=> (= (f26 (f27 f28 ?v0) ?v1) f1) (= (not (= (f26 (f27 f28 ?v1) ?v0) f1)) true))))
(assert (forall ((?v0 S1) (?v1 S1)) (=> (= (f23 (f24 f25 ?v0) ?v1) f1) (= (not (= (f23 (f24 f25 ?v1) ?v0) f1)) true))))
(assert (forall ((?v0 S3) (?v1 S3)) (=> (= (f14 (f21 f22 ?v0) ?v1) f1) (= (not (= (f14 (f21 f22 ?v1) ?v0) f1)) true))))
(assert (forall ((?v0 S2) (?v1 S2)) (=> (= (f3 (f11 f12 ?v0) ?v1) f1) (= (= ?v0 ?v1) false))))
(assert (forall ((?v0 S12) (?v1 S12)) (=> (= (f26 (f27 f28 ?v0) ?v1) f1) (= (= ?v0 ?v1) false))))
(assert (forall ((?v0 S1) (?v1 S1)) (=> (= (f23 (f24 f25 ?v0) ?v1) f1) (= (= (= ?v0 f1) (= ?v1 f1)) false))))
(assert (forall ((?v0 S3) (?v1 S3)) (=> (= (f14 (f21 f22 ?v0) ?v1) f1) (= (= ?v0 ?v1) false))))
(assert (forall ((?v0 S2) (?v1 S2)) (=> (= (f3 (f11 f12 ?v0) ?v1) f1) (= (= ?v1 ?v0) false))))
(assert (forall ((?v0 S12) (?v1 S12)) (=> (= (f26 (f27 f28 ?v0) ?v1) f1) (= (= ?v1 ?v0) false))))
(assert (forall ((?v0 S1) (?v1 S1)) (=> (= (f23 (f24 f25 ?v0) ?v1) f1) (= (= (= ?v1 f1) (= ?v0 f1)) false))))
(assert (forall ((?v0 S3) (?v1 S3)) (=> (= (f14 (f21 f22 ?v0) ?v1) f1) (= (= ?v1 ?v0) false))))
(assert (forall ((?v0 S2) (?v1 S2) (?v2 S1)) (=> (= (f3 (f11 f12 ?v0) ?v1) f1) (= (=> (= (f3 (f11 f12 ?v1) ?v0) f1) (= ?v2 f1)) true))))
(assert (forall ((?v0 S12) (?v1 S12) (?v2 S1)) (=> (= (f26 (f27 f28 ?v0) ?v1) f1) (= (=> (= (f26 (f27 f28 ?v1) ?v0) f1) (= ?v2 f1)) true))))
(assert (forall ((?v0 S1) (?v1 S1) (?v2 S1)) (=> (= (f23 (f24 f25 ?v0) ?v1) f1) (= (=> (= (f23 (f24 f25 ?v1) ?v0) f1) (= ?v2 f1)) true))))
(assert (forall ((?v0 S3) (?v1 S3) (?v2 S1)) (=> (= (f14 (f21 f22 ?v0) ?v1) f1) (= (=> (= (f14 (f21 f22 ?v1) ?v0) f1) (= ?v2 f1)) true))))
(assert (forall ((?v0 S2) (?v1 S2)) (=> (= (f3 (f11 f12 ?v0) ?v1) f1) (=> (= (f3 (f11 f12 ?v1) ?v0) f1) false))))
(assert (forall ((?v0 S12) (?v1 S12)) (=> (= (f26 (f27 f28 ?v0) ?v1) f1) (=> (= (f26 (f27 f28 ?v1) ?v0) f1) false))))
(assert (forall ((?v0 S1) (?v1 S1)) (=> (= (f23 (f24 f25 ?v0) ?v1) f1) (=> (= (f23 (f24 f25 ?v1) ?v0) f1) false))))
(assert (forall ((?v0 S3) (?v1 S3)) (=> (= (f14 (f21 f22 ?v0) ?v1) f1) (=> (= (f14 (f21 f22 ?v1) ?v0) f1) false))))
(assert (forall ((?v0 S2) (?v1 S2)) (=> (= (f3 (f11 f12 ?v0) ?v1) f1) (=> (= (f3 (f11 f12 ?v1) ?v0) f1) false))))
(assert (forall ((?v0 S12) (?v1 S12)) (=> (= (f26 (f27 f28 ?v0) ?v1) f1) (=> (= (f26 (f27 f28 ?v1) ?v0) f1) false))))
(assert (forall ((?v0 S1) (?v1 S1)) (=> (= (f23 (f24 f25 ?v0) ?v1) f1) (=> (= (f23 (f24 f25 ?v1) ?v0) f1) false))))
(assert (forall ((?v0 S3) (?v1 S3)) (=> (= (f14 (f21 f22 ?v0) ?v1) f1) (=> (= (f14 (f21 f22 ?v1) ?v0) f1) false))))
(assert (forall ((?v0 S2) (?v1 S2) (?v2 S2)) (=> (= ?v0 ?v1) (=> (= (f3 (f11 f12 ?v1) ?v2) f1) (= (f3 (f11 f12 ?v0) ?v2) f1)))))
(assert (forall ((?v0 S12) (?v1 S12) (?v2 S12)) (=> (= ?v0 ?v1) (=> (= (f26 (f27 f28 ?v1) ?v2) f1) (= (f26 (f27 f28 ?v0) ?v2) f1)))))
(assert (forall ((?v0 S1) (?v1 S1) (?v2 S1)) (=> (= (= ?v0 f1) (= ?v1 f1)) (=> (= (f23 (f24 f25 ?v1) ?v2) f1) (= (f23 (f24 f25 ?v0) ?v2) f1)))))
(assert (forall ((?v0 S3) (?v1 S3) (?v2 S3)) (=> (= ?v0 ?v1) (=> (= (f14 (f21 f22 ?v1) ?v2) f1) (= (f14 (f21 f22 ?v0) ?v2) f1)))))
(assert (forall ((?v0 S2) (?v1 S2) (?v2 S2)) (let ((?v_0 (f11 f12 ?v2))) (=> (= ?v0 ?v1) (=> (= (f3 ?v_0 ?v1) f1) (= (f3 ?v_0 ?v0) f1))))))
(assert (forall ((?v0 S12) (?v1 S12) (?v2 S12)) (let ((?v_0 (f27 f28 ?v2))) (=> (= ?v0 ?v1) (=> (= (f26 ?v_0 ?v1) f1) (= (f26 ?v_0 ?v0) f1))))))
(assert (forall ((?v0 S1) (?v1 S1) (?v2 S1)) (let ((?v_0 (f24 f25 ?v2))) (=> (= (= ?v0 f1) (= ?v1 f1)) (=> (= (f23 ?v_0 ?v1) f1) (= (f23 ?v_0 ?v0) f1))))))
(assert (forall ((?v0 S3) (?v1 S3) (?v2 S3)) (let ((?v_0 (f21 f22 ?v2))) (=> (= ?v0 ?v1) (=> (= (f14 ?v_0 ?v1) f1) (= (f14 ?v_0 ?v0) f1))))))
(assert (forall ((?v0 S2) (?v1 S2) (?v2 S2)) (let ((?v_0 (f11 f12 ?v0))) (=> (= (f3 ?v_0 ?v1) f1) (=> (= ?v1 ?v2) (= (f3 ?v_0 ?v2) f1))))))
(assert (forall ((?v0 S12) (?v1 S12) (?v2 S12)) (let ((?v_0 (f27 f28 ?v0))) (=> (= (f26 ?v_0 ?v1) f1) (=> (= ?v1 ?v2) (= (f26 ?v_0 ?v2) f1))))))
(assert (forall ((?v0 S1) (?v1 S1) (?v2 S1)) (let ((?v_0 (f24 f25 ?v0))) (=> (= (f23 ?v_0 ?v1) f1) (=> (= (= ?v1 f1) (= ?v2 f1)) (= (f23 ?v_0 ?v2) f1))))))
(assert (forall ((?v0 S3) (?v1 S3) (?v2 S3)) (let ((?v_0 (f21 f22 ?v0))) (=> (= (f14 ?v_0 ?v1) f1) (=> (= ?v1 ?v2) (= (f14 ?v_0 ?v2) f1))))))
(assert (forall ((?v0 S2) (?v1 S2) (?v2 S2)) (=> (= (f3 (f11 f12 ?v0) ?v1) f1) (=> (= ?v0 ?v2) (= (f3 (f11 f12 ?v2) ?v1) f1)))))
(assert (forall ((?v0 S12) (?v1 S12) (?v2 S12)) (=> (= (f26 (f27 f28 ?v0) ?v1) f1) (=> (= ?v0 ?v2) (= (f26 (f27 f28 ?v2) ?v1) f1)))))
(assert (forall ((?v0 S1) (?v1 S1) (?v2 S1)) (=> (= (f23 (f24 f25 ?v0) ?v1) f1) (=> (= (= ?v0 f1) (= ?v2 f1)) (= (f23 (f24 f25 ?v2) ?v1) f1)))))
(assert (forall ((?v0 S3) (?v1 S3) (?v2 S3)) (=> (= (f14 (f21 f22 ?v0) ?v1) f1) (=> (= ?v0 ?v2) (= (f14 (f21 f22 ?v2) ?v1) f1)))))
(assert (forall ((?v0 S2) (?v1 S2) (?v2 S2)) (let ((?v_0 (f11 f12 ?v0))) (=> (= (f3 ?v_0 ?v1) f1) (=> (= (f3 (f11 f12 ?v1) ?v2) f1) (= (f3 ?v_0 ?v2) f1))))))
(assert (forall ((?v0 S12) (?v1 S12) (?v2 S12)) (let ((?v_0 (f27 f28 ?v0))) (=> (= (f26 ?v_0 ?v1) f1) (=> (= (f26 (f27 f28 ?v1) ?v2) f1) (= (f26 ?v_0 ?v2) f1))))))
(assert (forall ((?v0 S1) (?v1 S1) (?v2 S1)) (let ((?v_0 (f24 f25 ?v0))) (=> (= (f23 ?v_0 ?v1) f1) (=> (= (f23 (f24 f25 ?v1) ?v2) f1) (= (f23 ?v_0 ?v2) f1))))))
(assert (forall ((?v0 S3) (?v1 S3) (?v2 S3)) (let ((?v_0 (f21 f22 ?v0))) (=> (= (f14 ?v_0 ?v1) f1) (=> (= (f14 (f21 f22 ?v1) ?v2) f1) (= (f14 ?v_0 ?v2) f1))))))
(assert (forall ((?v0 S2) (?v1 S2) (?v2 S2)) (let ((?v_0 (f11 f12 ?v2))) (=> (= (f3 (f11 f12 ?v0) ?v1) f1) (=> (= (f3 ?v_0 ?v0) f1) (= (f3 ?v_0 ?v1) f1))))))
(assert (forall ((?v0 S12) (?v1 S12) (?v2 S12)) (let ((?v_0 (f27 f28 ?v2))) (=> (= (f26 (f27 f28 ?v0) ?v1) f1) (=> (= (f26 ?v_0 ?v0) f1) (= (f26 ?v_0 ?v1) f1))))))
(assert (forall ((?v0 S1) (?v1 S1) (?v2 S1)) (let ((?v_0 (f24 f25 ?v2))) (=> (= (f23 (f24 f25 ?v0) ?v1) f1) (=> (= (f23 ?v_0 ?v0) f1) (= (f23 ?v_0 ?v1) f1))))))
(assert (forall ((?v0 S3) (?v1 S3) (?v2 S3)) (let ((?v_0 (f21 f22 ?v2))) (=> (= (f14 (f21 f22 ?v0) ?v1) f1) (=> (= (f14 ?v_0 ?v0) f1) (= (f14 ?v_0 ?v1) f1))))))
(assert (forall ((?v0 S2) (?v1 S2)) (=> (= (f3 (f11 f12 ?v0) ?v1) f1) (=> (=> (not false) (= (f3 (f11 f12 ?v1) ?v0) f1)) false))))
(assert (forall ((?v0 S12) (?v1 S12)) (=> (= (f26 (f27 f28 ?v0) ?v1) f1) (=> (=> (not false) (= (f26 (f27 f28 ?v1) ?v0) f1)) false))))
(assert (forall ((?v0 S1) (?v1 S1)) (=> (= (f23 (f24 f25 ?v0) ?v1) f1) (=> (=> (not false) (= (f23 (f24 f25 ?v1) ?v0) f1)) false))))
(assert (forall ((?v0 S3) (?v1 S3)) (=> (= (f14 (f21 f22 ?v0) ?v1) f1) (=> (=> (not false) (= (f14 (f21 f22 ?v1) ?v0) f1)) false))))
(assert (forall ((?v0 S3) (?v1 S3) (?v2 S2)) (=> (= (f3 (f5 (f6 f20 ?v0) ?v1) ?v2) f1) (= (f14 (f15 f16 ?v2) ?v0) f1))))
(assert (forall ((?v0 S3) (?v1 S3) (?v2 S2) (?v3 S2)) (let ((?v_0 (f5 (f6 f20 ?v0) ?v1))) (=> (= (f3 ?v_0 ?v2) f1) (=> (= (f3 ?v_0 ?v3) f1) (= ?v2 ?v3))))))
(assert (forall ((?v0 S2) (?v1 S2)) (=> (=> (= (f3 (f11 f12 ?v0) ?v1) f1) false) (=> (=> (= ?v0 ?v1) false) (=> (=> (= (f3 (f11 f12 ?v1) ?v0) f1) false) false)))))
(assert (forall ((?v0 S3) (?v1 S3) (?v2 S2)) (=> (= (f3 (f5 (f6 f20 ?v0) ?v1) ?v2) f1) (= (f3 (f5 (f6 f7 ?v0) ?v1) ?v2) f1))))
(assert (forall ((?v0 S3) (?v1 S3) (?v2 S2)) (=> (= (f3 (f5 (f6 f20 ?v0) ?v1) ?v2) f1) (= (f14 (f15 f34 ?v2) (f5 (f6 f19 ?v0) ?v1)) f1))))
(assert (forall ((?v0 S3) (?v1 S3) (?v2 S2)) (let ((?v_0 (f5 (f6 f7 ?v0) ?v1))) (=> (= (f3 ?v_0 ?v2) f1) (=> (= (f14 (f15 f34 ?v2) (f5 f9 ?v_0)) f1) (= (f3 (f5 (f6 f20 ?v0) ?v1) ?v2) f1))))))
(assert (forall ((?v0 S3) (?v1 S3) (?v2 S2)) (=> (= (f3 (f5 (f6 f20 ?v0) ?v1) ?v2) f1) (= (f3 (f5 f35 (f5 (f6 f7 ?v0) ?v1)) ?v2) f1))))
(assert (forall ((?v0 S3) (?v1 S3) (?v2 S2)) (=> (= (f3 (f5 f35 (f5 (f6 f7 ?v0) ?v1)) ?v2) f1) (= (f3 (f5 (f6 f20 ?v0) ?v1) ?v2) f1))))
(assert (forall ((?v0 S3) (?v1 S3) (?v2 S2)) (= (= (f3 (f5 (f6 f20 ?v0) ?v1) ?v2) f1) (= (f3 (f5 f35 (f5 (f6 f7 ?v0) ?v1)) ?v2) f1))))
(assert (forall ((?v0 S3)) (=> (forall ((?v1 S2)) (= (f14 (f15 f16 ?v1) ?v0) f1)) (= f8 ?v0))))
(assert (exists ((?v0 S2)) (= (f14 (f15 f16 ?v0) f8) f1)))
(assert (forall ((?v0 S2)) (exists ((?v1 S2)) (= (f3 (f11 f12 ?v0) ?v1) f1))))
(assert (forall ((?v0 S2)) (exists ((?v1 S2)) (= (f3 (f11 f12 ?v1) ?v0) f1))))
(assert (forall ((?v0 S2) (?v1 S2)) (=> (= (f3 (f11 f12 ?v0) ?v1) f1) (exists ((?v2 S2)) (and (= (f3 (f11 f12 ?v0) ?v2) f1) (= (f3 (f11 f12 ?v2) ?v1) f1))))))
(assert (forall ((?v0 S3) (?v1 S2)) (= (= (f3 (f5 f35 ?v0) ?v1) f1) (and (= (f3 ?v0 ?v1) f1) (= (f14 (f15 f34 ?v1) (f5 f9 ?v0)) f1)))))
(assert (forall ((?v0 S3) (?v1 S2)) (=> (= (f3 (f5 f35 ?v0) ?v1) f1) (= (f14 (f15 f34 ?v1) (f5 f9 ?v0)) f1))))
(assert (forall ((?v0 S3) (?v1 S2)) (=> (= (f3 (f5 f35 ?v0) ?v1) f1) (= (f3 ?v0 ?v1) f1))))
(assert (forall ((?v0 S17) (?v1 S2) (?v2 S12) (?v3 S2)) (=> (= (f26 (f27 f28 (f36 ?v0 ?v1)) ?v2) f1) (=> (= (f3 (f11 f12 ?v3) ?v1) f1) (=> (forall ((?v4 S2) (?v5 S2)) (=> (= (f3 (f11 f12 ?v5) ?v4) f1) (= (f26 (f27 f28 (f36 ?v0 ?v5)) (f36 ?v0 ?v4)) f1))) (= (f26 (f27 f28 (f36 ?v0 ?v3)) ?v2) f1))))))
(assert (forall ((?v0 S3) (?v1 S2) (?v2 S1) (?v3 S2)) (=> (= (f23 (f24 f25 (f3 ?v0 ?v1)) ?v2) f1) (=> (= (f3 (f11 f12 ?v3) ?v1) f1) (=> (forall ((?v4 S2) (?v5 S2)) (=> (= (f3 (f11 f12 ?v5) ?v4) f1) (= (f23 (f24 f25 (f3 ?v0 ?v5)) (f3 ?v0 ?v4)) f1))) (= (f23 (f24 f25 (f3 ?v0 ?v3)) ?v2) f1))))))
(assert (forall ((?v0 S6) (?v1 S2) (?v2 S3) (?v3 S2)) (=> (= (f14 (f21 f22 (f11 ?v0 ?v1)) ?v2) f1) (=> (= (f3 (f11 f12 ?v3) ?v1) f1) (=> (forall ((?v4 S2) (?v5 S2)) (=> (= (f3 (f11 f12 ?v5) ?v4) f1) (= (f14 (f21 f22 (f11 ?v0 ?v5)) (f11 ?v0 ?v4)) f1))) (= (f14 (f21 f22 (f11 ?v0 ?v3)) ?v2) f1))))))
(assert (forall ((?v0 S18) (?v1 S12) (?v2 S2) (?v3 S12)) (=> (= (f3 (f11 f12 (f37 ?v0 ?v1)) ?v2) f1) (=> (= (f26 (f27 f28 ?v3) ?v1) f1) (=> (forall ((?v4 S12) (?v5 S12)) (=> (= (f26 (f27 f28 ?v5) ?v4) f1) (= (f3 (f11 f12 (f37 ?v0 ?v5)) (f37 ?v0 ?v4)) f1))) (= (f3 (f11 f12 (f37 ?v0 ?v3)) ?v2) f1))))))
(assert (forall ((?v0 S19) (?v1 S1) (?v2 S2) (?v3 S1)) (=> (= (f3 (f11 f12 (f38 ?v0 ?v1)) ?v2) f1) (=> (= (f23 (f24 f25 ?v3) ?v1) f1) (=> (forall ((?v4 S1) (?v5 S1)) (=> (= (f23 (f24 f25 ?v5) ?v4) f1) (= (f3 (f11 f12 (f38 ?v0 ?v5)) (f38 ?v0 ?v4)) f1))) (= (f3 (f11 f12 (f38 ?v0 ?v3)) ?v2) f1))))))
(assert (forall ((?v0 S20) (?v1 S3) (?v2 S2) (?v3 S3)) (=> (= (f3 (f11 f12 (f39 ?v0 ?v1)) ?v2) f1) (=> (= (f14 (f21 f22 ?v3) ?v1) f1) (=> (forall ((?v4 S3) (?v5 S3)) (=> (= (f14 (f21 f22 ?v5) ?v4) f1) (= (f3 (f11 f12 (f39 ?v0 ?v5)) (f39 ?v0 ?v4)) f1))) (= (f3 (f11 f12 (f39 ?v0 ?v3)) ?v2) f1))))))
(assert (forall ((?v0 S2) (?v1 S15) (?v2 S2) (?v3 S2)) (=> (= ?v0 (f30 ?v1 ?v2)) (=> (= (f3 (f11 f12 ?v3) ?v2) f1) (=> (forall ((?v4 S2) (?v5 S2)) (=> (= (f3 (f11 f12 ?v5) ?v4) f1) (= (f3 (f11 f12 (f30 ?v1 ?v5)) (f30 ?v1 ?v4)) f1))) (= (f3 (f11 f12 (f30 ?v1 ?v3)) ?v0) f1))))))
(assert (forall ((?v0 S12) (?v1 S21) (?v2 S12) (?v3 S12)) (=> (= ?v0 (f40 ?v1 ?v2)) (=> (= (f26 (f27 f28 ?v3) ?v2) f1) (=> (forall ((?v4 S12) (?v5 S12)) (=> (= (f26 (f27 f28 ?v5) ?v4) f1) (= (f26 (f27 f28 (f40 ?v1 ?v5)) (f40 ?v1 ?v4)) f1))) (= (f26 (f27 f28 (f40 ?v1 ?v3)) ?v0) f1))))))
(assert (forall ((?v0 S1) (?v1 S10) (?v2 S1) (?v3 S1)) (=> (= (= ?v0 f1) (= (f23 ?v1 ?v2) f1)) (=> (= (f23 (f24 f25 ?v3) ?v2) f1) (=> (forall ((?v4 S1) (?v5 S1)) (=> (= (f23 (f24 f25 ?v5) ?v4) f1) (= (f23 (f24 f25 (f23 ?v1 ?v5)) (f23 ?v1 ?v4)) f1))) (= (f23 (f24 f25 (f23 ?v1 ?v3)) ?v0) f1))))))
(assert (forall ((?v0 S3) (?v1 S4) (?v2 S3) (?v3 S3)) (=> (= ?v0 (f5 ?v1 ?v2)) (=> (= (f14 (f21 f22 ?v3) ?v2) f1) (=> (forall ((?v4 S3) (?v5 S3)) (=> (= (f14 (f21 f22 ?v5) ?v4) f1) (= (f14 (f21 f22 (f5 ?v1 ?v5)) (f5 ?v1 ?v4)) f1))) (= (f14 (f21 f22 (f5 ?v1 ?v3)) ?v0) f1))))))
(assert (forall ((?v0 S12) (?v1 S17) (?v2 S2) (?v3 S2)) (let ((?v_0 (f27 f28 ?v0))) (=> (= (f26 ?v_0 (f36 ?v1 ?v2)) f1) (=> (= (f3 (f11 f12 ?v2) ?v3) f1) (=> (forall ((?v4 S2) (?v5 S2)) (=> (= (f3 (f11 f12 ?v4) ?v5) f1) (= (f26 (f27 f28 (f36 ?v1 ?v4)) (f36 ?v1 ?v5)) f1))) (= (f26 ?v_0 (f36 ?v1 ?v3)) f1)))))))
(assert (forall ((?v0 S1) (?v1 S3) (?v2 S2) (?v3 S2)) (let ((?v_0 (f24 f25 ?v0))) (=> (= (f23 ?v_0 (f3 ?v1 ?v2)) f1) (=> (= (f3 (f11 f12 ?v2) ?v3) f1) (=> (forall ((?v4 S2) (?v5 S2)) (=> (= (f3 (f11 f12 ?v4) ?v5) f1) (= (f23 (f24 f25 (f3 ?v1 ?v4)) (f3 ?v1 ?v5)) f1))) (= (f23 ?v_0 (f3 ?v1 ?v3)) f1)))))))
(assert (forall ((?v0 S3) (?v1 S6) (?v2 S2) (?v3 S2)) (let ((?v_0 (f21 f22 ?v0))) (=> (= (f14 ?v_0 (f11 ?v1 ?v2)) f1) (=> (= (f3 (f11 f12 ?v2) ?v3) f1) (=> (forall ((?v4 S2) (?v5 S2)) (=> (= (f3 (f11 f12 ?v4) ?v5) f1) (= (f14 (f21 f22 (f11 ?v1 ?v4)) (f11 ?v1 ?v5)) f1))) (= (f14 ?v_0 (f11 ?v1 ?v3)) f1)))))))
(assert (forall ((?v0 S2) (?v1 S18) (?v2 S12) (?v3 S12)) (let ((?v_0 (f11 f12 ?v0))) (=> (= (f3 ?v_0 (f37 ?v1 ?v2)) f1) (=> (= (f26 (f27 f28 ?v2) ?v3) f1) (=> (forall ((?v4 S12) (?v5 S12)) (=> (= (f26 (f27 f28 ?v4) ?v5) f1) (= (f3 (f11 f12 (f37 ?v1 ?v4)) (f37 ?v1 ?v5)) f1))) (= (f3 ?v_0 (f37 ?v1 ?v3)) f1)))))))
(assert (forall ((?v0 S2) (?v1 S19) (?v2 S1) (?v3 S1)) (let ((?v_0 (f11 f12 ?v0))) (=> (= (f3 ?v_0 (f38 ?v1 ?v2)) f1) (=> (= (f23 (f24 f25 ?v2) ?v3) f1) (=> (forall ((?v4 S1) (?v5 S1)) (=> (= (f23 (f24 f25 ?v4) ?v5) f1) (= (f3 (f11 f12 (f38 ?v1 ?v4)) (f38 ?v1 ?v5)) f1))) (= (f3 ?v_0 (f38 ?v1 ?v3)) f1)))))))
(assert (forall ((?v0 S2) (?v1 S20) (?v2 S3) (?v3 S3)) (let ((?v_0 (f11 f12 ?v0))) (=> (= (f3 ?v_0 (f39 ?v1 ?v2)) f1) (=> (= (f14 (f21 f22 ?v2) ?v3) f1) (=> (forall ((?v4 S3) (?v5 S3)) (=> (= (f14 (f21 f22 ?v4) ?v5) f1) (= (f3 (f11 f12 (f39 ?v1 ?v4)) (f39 ?v1 ?v5)) f1))) (= (f3 ?v_0 (f39 ?v1 ?v3)) f1)))))))
(assert (forall ((?v0 S2) (?v1 S18) (?v2 S12) (?v3 S12)) (=> (= ?v0 (f37 ?v1 ?v2)) (=> (= (f26 (f27 f28 ?v2) ?v3) f1) (=> (forall ((?v4 S12) (?v5 S12)) (=> (= (f26 (f27 f28 ?v4) ?v5) f1) (= (f3 (f11 f12 (f37 ?v1 ?v4)) (f37 ?v1 ?v5)) f1))) (= (f3 (f11 f12 ?v0) (f37 ?v1 ?v3)) f1))))))
(assert (forall ((?v0 S2) (?v1 S19) (?v2 S1) (?v3 S1)) (=> (= ?v0 (f38 ?v1 ?v2)) (=> (= (f23 (f24 f25 ?v2) ?v3) f1) (=> (forall ((?v4 S1) (?v5 S1)) (=> (= (f23 (f24 f25 ?v4) ?v5) f1) (= (f3 (f11 f12 (f38 ?v1 ?v4)) (f38 ?v1 ?v5)) f1))) (= (f3 (f11 f12 ?v0) (f38 ?v1 ?v3)) f1))))))
(assert (forall ((?v0 S2) (?v1 S20) (?v2 S3) (?v3 S3)) (=> (= ?v0 (f39 ?v1 ?v2)) (=> (= (f14 (f21 f22 ?v2) ?v3) f1) (=> (forall ((?v4 S3) (?v5 S3)) (=> (= (f14 (f21 f22 ?v4) ?v5) f1) (= (f3 (f11 f12 (f39 ?v1 ?v4)) (f39 ?v1 ?v5)) f1))) (= (f3 (f11 f12 ?v0) (f39 ?v1 ?v3)) f1))))))
(assert (forall ((?v0 S12) (?v1 S17) (?v2 S2) (?v3 S2)) (=> (= ?v0 (f36 ?v1 ?v2)) (=> (= (f3 (f11 f12 ?v2) ?v3) f1) (=> (forall ((?v4 S2) (?v5 S2)) (=> (= (f3 (f11 f12 ?v4) ?v5) f1) (= (f26 (f27 f28 (f36 ?v1 ?v4)) (f36 ?v1 ?v5)) f1))) (= (f26 (f27 f28 ?v0) (f36 ?v1 ?v3)) f1))))))
(assert (forall ((?v0 S1) (?v1 S3) (?v2 S2) (?v3 S2)) (=> (= (= ?v0 f1) (= (f3 ?v1 ?v2) f1)) (=> (= (f3 (f11 f12 ?v2) ?v3) f1) (=> (forall ((?v4 S2) (?v5 S2)) (=> (= (f3 (f11 f12 ?v4) ?v5) f1) (= (f23 (f24 f25 (f3 ?v1 ?v4)) (f3 ?v1 ?v5)) f1))) (= (f23 (f24 f25 ?v0) (f3 ?v1 ?v3)) f1))))))
(assert (forall ((?v0 S3) (?v1 S6) (?v2 S2) (?v3 S2)) (=> (= ?v0 (f11 ?v1 ?v2)) (=> (= (f3 (f11 f12 ?v2) ?v3) f1) (=> (forall ((?v4 S2) (?v5 S2)) (=> (= (f3 (f11 f12 ?v4) ?v5) f1) (= (f14 (f21 f22 (f11 ?v1 ?v4)) (f11 ?v1 ?v5)) f1))) (= (f14 (f21 f22 ?v0) (f11 ?v1 ?v3)) f1))))))
(assert (forall ((?v0 S12) (?v1 S12) (?v2 S18) (?v3 S2)) (=> (= (f26 (f27 f28 ?v0) ?v1) f1) (=> (= (f3 (f11 f12 (f37 ?v2 ?v1)) ?v3) f1) (=> (forall ((?v4 S12) (?v5 S12)) (=> (= (f26 (f27 f28 ?v4) ?v5) f1) (= (f3 (f11 f12 (f37 ?v2 ?v4)) (f37 ?v2 ?v5)) f1))) (= (f3 (f11 f12 (f37 ?v2 ?v0)) ?v3) f1))))))
(assert (forall ((?v0 S1) (?v1 S1) (?v2 S19) (?v3 S2)) (=> (= (f23 (f24 f25 ?v0) ?v1) f1) (=> (= (f3 (f11 f12 (f38 ?v2 ?v1)) ?v3) f1) (=> (forall ((?v4 S1) (?v5 S1)) (=> (= (f23 (f24 f25 ?v4) ?v5) f1) (= (f3 (f11 f12 (f38 ?v2 ?v4)) (f38 ?v2 ?v5)) f1))) (= (f3 (f11 f12 (f38 ?v2 ?v0)) ?v3) f1))))))
(assert (forall ((?v0 S3) (?v1 S3) (?v2 S20) (?v3 S2)) (=> (= (f14 (f21 f22 ?v0) ?v1) f1) (=> (= (f3 (f11 f12 (f39 ?v2 ?v1)) ?v3) f1) (=> (forall ((?v4 S3) (?v5 S3)) (=> (= (f14 (f21 f22 ?v4) ?v5) f1) (= (f3 (f11 f12 (f39 ?v2 ?v4)) (f39 ?v2 ?v5)) f1))) (= (f3 (f11 f12 (f39 ?v2 ?v0)) ?v3) f1))))))
(assert (forall ((?v0 S2) (?v1 S2) (?v2 S17) (?v3 S12)) (=> (= (f3 (f11 f12 ?v0) ?v1) f1) (=> (= (f26 (f27 f28 (f36 ?v2 ?v1)) ?v3) f1) (=> (forall ((?v4 S2) (?v5 S2)) (=> (= (f3 (f11 f12 ?v4) ?v5) f1) (= (f26 (f27 f28 (f36 ?v2 ?v4)) (f36 ?v2 ?v5)) f1))) (= (f26 (f27 f28 (f36 ?v2 ?v0)) ?v3) f1))))))
(assert (forall ((?v0 S2) (?v1 S2) (?v2 S3) (?v3 S1)) (=> (= (f3 (f11 f12 ?v0) ?v1) f1) (=> (= (f23 (f24 f25 (f3 ?v2 ?v1)) ?v3) f1) (=> (forall ((?v4 S2) (?v5 S2)) (=> (= (f3 (f11 f12 ?v4) ?v5) f1) (= (f23 (f24 f25 (f3 ?v2 ?v4)) (f3 ?v2 ?v5)) f1))) (= (f23 (f24 f25 (f3 ?v2 ?v0)) ?v3) f1))))))
(assert (forall ((?v0 S2) (?v1 S2) (?v2 S6) (?v3 S3)) (=> (= (f3 (f11 f12 ?v0) ?v1) f1) (=> (= (f14 (f21 f22 (f11 ?v2 ?v1)) ?v3) f1) (=> (forall ((?v4 S2) (?v5 S2)) (=> (= (f3 (f11 f12 ?v4) ?v5) f1) (= (f14 (f21 f22 (f11 ?v2 ?v4)) (f11 ?v2 ?v5)) f1))) (= (f14 (f21 f22 (f11 ?v2 ?v0)) ?v3) f1))))))
(assert (forall ((?v0 S12) (?v1 S12) (?v2 S18) (?v3 S2)) (=> (= (f26 (f27 f28 ?v0) ?v1) f1) (=> (= (f37 ?v2 ?v1) ?v3) (=> (forall ((?v4 S12) (?v5 S12)) (=> (= (f26 (f27 f28 ?v4) ?v5) f1) (= (f3 (f11 f12 (f37 ?v2 ?v4)) (f37 ?v2 ?v5)) f1))) (= (f3 (f11 f12 (f37 ?v2 ?v0)) ?v3) f1))))))
(assert (forall ((?v0 S1) (?v1 S1) (?v2 S19) (?v3 S2)) (=> (= (f23 (f24 f25 ?v0) ?v1) f1) (=> (= (f38 ?v2 ?v1) ?v3) (=> (forall ((?v4 S1) (?v5 S1)) (=> (= (f23 (f24 f25 ?v4) ?v5) f1) (= (f3 (f11 f12 (f38 ?v2 ?v4)) (f38 ?v2 ?v5)) f1))) (= (f3 (f11 f12 (f38 ?v2 ?v0)) ?v3) f1))))))
(assert (forall ((?v0 S3) (?v1 S3) (?v2 S20) (?v3 S2)) (=> (= (f14 (f21 f22 ?v0) ?v1) f1) (=> (= (f39 ?v2 ?v1) ?v3) (=> (forall ((?v4 S3) (?v5 S3)) (=> (= (f14 (f21 f22 ?v4) ?v5) f1) (= (f3 (f11 f12 (f39 ?v2 ?v4)) (f39 ?v2 ?v5)) f1))) (= (f3 (f11 f12 (f39 ?v2 ?v0)) ?v3) f1))))))
(assert (forall ((?v0 S2) (?v1 S2) (?v2 S17) (?v3 S12)) (=> (= (f3 (f11 f12 ?v0) ?v1) f1) (=> (= (f36 ?v2 ?v1) ?v3) (=> (forall ((?v4 S2) (?v5 S2)) (=> (= (f3 (f11 f12 ?v4) ?v5) f1) (= (f26 (f27 f28 (f36 ?v2 ?v4)) (f36 ?v2 ?v5)) f1))) (= (f26 (f27 f28 (f36 ?v2 ?v0)) ?v3) f1))))))
(assert (forall ((?v0 S2) (?v1 S2) (?v2 S3) (?v3 S1)) (=> (= (f3 (f11 f12 ?v0) ?v1) f1) (=> (= (= (f3 ?v2 ?v1) f1) (= ?v3 f1)) (=> (forall ((?v4 S2) (?v5 S2)) (=> (= (f3 (f11 f12 ?v4) ?v5) f1) (= (f23 (f24 f25 (f3 ?v2 ?v4)) (f3 ?v2 ?v5)) f1))) (= (f23 (f24 f25 (f3 ?v2 ?v0)) ?v3) f1))))))
(assert (forall ((?v0 S2) (?v1 S2) (?v2 S6) (?v3 S3)) (=> (= (f3 (f11 f12 ?v0) ?v1) f1) (=> (= (f11 ?v2 ?v1) ?v3) (=> (forall ((?v4 S2) (?v5 S2)) (=> (= (f3 (f11 f12 ?v4) ?v5) f1) (= (f14 (f21 f22 (f11 ?v2 ?v4)) (f11 ?v2 ?v5)) f1))) (= (f14 (f21 f22 (f11 ?v2 ?v0)) ?v3) f1))))))
(assert (forall ((?v0 S2) (?v1 S2) (?v2 S15) (?v3 S2)) (=> (= (f3 (f11 f12 ?v0) ?v1) f1) (=> (= (f30 ?v2 ?v0) ?v3) (=> (forall ((?v4 S2) (?v5 S2)) (=> (= (f3 (f11 f12 ?v5) ?v4) f1) (= (f3 (f11 f12 (f30 ?v2 ?v5)) (f30 ?v2 ?v4)) f1))) (= (f3 (f11 f12 ?v3) (f30 ?v2 ?v1)) f1))))))
(assert (forall ((?v0 S12) (?v1 S12) (?v2 S21) (?v3 S12)) (=> (= (f26 (f27 f28 ?v0) ?v1) f1) (=> (= (f40 ?v2 ?v0) ?v3) (=> (forall ((?v4 S12) (?v5 S12)) (=> (= (f26 (f27 f28 ?v5) ?v4) f1) (= (f26 (f27 f28 (f40 ?v2 ?v5)) (f40 ?v2 ?v4)) f1))) (= (f26 (f27 f28 ?v3) (f40 ?v2 ?v1)) f1))))))
(assert (forall ((?v0 S1) (?v1 S1) (?v2 S10) (?v3 S1)) (=> (= (f23 (f24 f25 ?v0) ?v1) f1) (=> (= (= (f23 ?v2 ?v0) f1) (= ?v3 f1)) (=> (forall ((?v4 S1) (?v5 S1)) (=> (= (f23 (f24 f25 ?v5) ?v4) f1) (= (f23 (f24 f25 (f23 ?v2 ?v5)) (f23 ?v2 ?v4)) f1))) (= (f23 (f24 f25 ?v3) (f23 ?v2 ?v1)) f1))))))
(assert (forall ((?v0 S3) (?v1 S3) (?v2 S4) (?v3 S3)) (=> (= (f14 (f21 f22 ?v0) ?v1) f1) (=> (= (f5 ?v2 ?v0) ?v3) (=> (forall ((?v4 S3) (?v5 S3)) (=> (= (f14 (f21 f22 ?v5) ?v4) f1) (= (f14 (f21 f22 (f5 ?v2 ?v5)) (f5 ?v2 ?v4)) f1))) (= (f14 (f21 f22 ?v3) (f5 ?v2 ?v1)) f1))))))
(assert (forall ((?v0 S12) (?v1 S12) (?v2 S2) (?v3 S18)) (let ((?v_0 (f11 f12 ?v2))) (=> (= (f26 (f27 f28 ?v0) ?v1) f1) (=> (= (f3 ?v_0 (f37 ?v3 ?v0)) f1) (=> (forall ((?v4 S12) (?v5 S12)) (=> (= (f26 (f27 f28 ?v5) ?v4) f1) (= (f3 (f11 f12 (f37 ?v3 ?v5)) (f37 ?v3 ?v4)) f1))) (= (f3 ?v_0 (f37 ?v3 ?v1)) f1)))))))
(assert (forall ((?v0 S1) (?v1 S1) (?v2 S2) (?v3 S19)) (let ((?v_0 (f11 f12 ?v2))) (=> (= (f23 (f24 f25 ?v0) ?v1) f1) (=> (= (f3 ?v_0 (f38 ?v3 ?v0)) f1) (=> (forall ((?v4 S1) (?v5 S1)) (=> (= (f23 (f24 f25 ?v5) ?v4) f1) (= (f3 (f11 f12 (f38 ?v3 ?v5)) (f38 ?v3 ?v4)) f1))) (= (f3 ?v_0 (f38 ?v3 ?v1)) f1)))))))
(assert (forall ((?v0 S3) (?v1 S3) (?v2 S2) (?v3 S20)) (let ((?v_0 (f11 f12 ?v2))) (=> (= (f14 (f21 f22 ?v0) ?v1) f1) (=> (= (f3 ?v_0 (f39 ?v3 ?v0)) f1) (=> (forall ((?v4 S3) (?v5 S3)) (=> (= (f14 (f21 f22 ?v5) ?v4) f1) (= (f3 (f11 f12 (f39 ?v3 ?v5)) (f39 ?v3 ?v4)) f1))) (= (f3 ?v_0 (f39 ?v3 ?v1)) f1)))))))
(assert (forall ((?v0 S2) (?v1 S2) (?v2 S12) (?v3 S17)) (let ((?v_0 (f27 f28 ?v2))) (=> (= (f3 (f11 f12 ?v0) ?v1) f1) (=> (= (f26 ?v_0 (f36 ?v3 ?v0)) f1) (=> (forall ((?v4 S2) (?v5 S2)) (=> (= (f3 (f11 f12 ?v5) ?v4) f1) (= (f26 (f27 f28 (f36 ?v3 ?v5)) (f36 ?v3 ?v4)) f1))) (= (f26 ?v_0 (f36 ?v3 ?v1)) f1)))))))
(assert (forall ((?v0 S2) (?v1 S2) (?v2 S1) (?v3 S3)) (let ((?v_0 (f24 f25 ?v2))) (=> (= (f3 (f11 f12 ?v0) ?v1) f1) (=> (= (f23 ?v_0 (f3 ?v3 ?v0)) f1) (=> (forall ((?v4 S2) (?v5 S2)) (=> (= (f3 (f11 f12 ?v5) ?v4) f1) (= (f23 (f24 f25 (f3 ?v3 ?v5)) (f3 ?v3 ?v4)) f1))) (= (f23 ?v_0 (f3 ?v3 ?v1)) f1)))))))
(assert (forall ((?v0 S2) (?v1 S2) (?v2 S3) (?v3 S6)) (let ((?v_0 (f21 f22 ?v2))) (=> (= (f3 (f11 f12 ?v0) ?v1) f1) (=> (= (f14 ?v_0 (f11 ?v3 ?v0)) f1) (=> (forall ((?v4 S2) (?v5 S2)) (=> (= (f3 (f11 f12 ?v5) ?v4) f1) (= (f14 (f21 f22 (f11 ?v3 ?v5)) (f11 ?v3 ?v4)) f1))) (= (f14 ?v_0 (f11 ?v3 ?v1)) f1)))))))
(assert (forall ((?v0 S2) (?v1 S2)) (=> (not (= ?v0 ?v1)) (=> (=> (= (f3 (f11 f12 ?v0) ?v1) f1) false) (=> (=> (= (f3 (f11 f12 ?v1) ?v0) f1) false) false)))))
(assert (forall ((?v0 S2) (?v1 S2) (?v2 S2)) (let ((?v_0 (f11 f12 ?v0))) (=> (= (f3 ?v_0 ?v1) f1) (= (f3 ?v_0 (f30 (f31 f32 ?v1) ?v2)) f1)))))
(assert (forall ((?v0 S2) (?v1 S2) (?v2 S2)) (let ((?v_0 (f11 f12 ?v0))) (=> (= (f3 ?v_0 ?v1) f1) (= (f3 ?v_0 (f30 (f31 f32 ?v2) ?v1)) f1)))))
(assert (forall ((?v0 S2) (?v1 S2) (?v2 S2)) (=> (= (f3 (f11 f12 ?v0) ?v1) f1) (= (f3 (f11 f12 (f30 (f31 f33 ?v0) ?v2)) ?v1) f1))))
(assert (forall ((?v0 S2) (?v1 S2) (?v2 S2)) (=> (= (f3 (f11 f12 ?v0) ?v1) f1) (= (f3 (f11 f12 (f30 (f31 f33 ?v2) ?v0)) ?v1) f1))))
(assert (forall ((?v0 S3) (?v1 S3) (?v2 S2)) (=> (= (f3 (f5 (f6 f7 ?v0) ?v1) ?v2) f1) (= (f3 (f5 f41 ?v1) ?v2) f1))))
(assert (forall ((?v0 S3) (?v1 S3) (?v2 S2)) (=> (= (f3 (f5 (f6 f20 ?v0) ?v1) ?v2) f1) (= (f3 (f5 f41 ?v1) ?v2) f1))))
(assert (forall ((?v0 S3) (?v1 S3) (?v2 S2)) (= (= (f3 (f5 (f6 f7 ?v0) ?v1) ?v2) f1) (and (= (f3 (f5 f41 ?v1) ?v2) f1) (= (f14 (f15 f16 ?v2) ?v0) f1)))))
(assert (forall ((?v0 S2) (?v1 S3)) (= (= (f14 (f15 f16 ?v0) ?v1) f1) (= (f3 ?v1 ?v0) f1))))
(assert (forall ((?v0 S3)) (= (f5 f9 ?v0) ?v0)))
(assert (forall ((?v0 S3) (?v1 S2) (?v2 S3)) (=> (= (f3 (f5 f41 ?v0) ?v1) f1) (=> (= (f14 (f15 f16 ?v1) ?v2) f1) (= (f3 (f5 (f6 f7 ?v2) ?v0) ?v1) f1)))))
(assert (forall ((?v0 S3) (?v1 S3) (?v2 S2) (?v3 S2)) (=> (= (f3 (f5 (f6 f20 ?v0) ?v1) ?v2) f1) (=> (= (f3 (f5 (f6 f7 ?v0) ?v1) ?v3) f1) (= (f3 (f11 f42 ?v2) ?v3) f1)))))
(assert (forall ((?v0 S18) (?v1 S12) (?v2 S12)) (=> (= (f43 f44 ?v0) f1) (=> (= (f26 (f27 f28 ?v1) ?v2) f1) (= (f3 (f11 f12 (f37 ?v0 ?v1)) (f37 ?v0 ?v2)) f1)))))
(assert (forall ((?v0 S19) (?v1 S1) (?v2 S1)) (=> (= (f45 f46 ?v0) f1) (=> (= (f23 (f24 f25 ?v1) ?v2) f1) (= (f3 (f11 f12 (f38 ?v0 ?v1)) (f38 ?v0 ?v2)) f1)))))
(assert (forall ((?v0 S20) (?v1 S3) (?v2 S3)) (=> (= (f47 f48 ?v0) f1) (=> (= (f14 (f21 f22 ?v1) ?v2) f1) (= (f3 (f11 f12 (f39 ?v0 ?v1)) (f39 ?v0 ?v2)) f1)))))
(assert (forall ((?v0 S17) (?v1 S2) (?v2 S2)) (=> (= (f49 f50 ?v0) f1) (=> (= (f3 (f11 f12 ?v1) ?v2) f1) (= (f26 (f27 f28 (f36 ?v0 ?v1)) (f36 ?v0 ?v2)) f1)))))
(assert (forall ((?v0 S3) (?v1 S2) (?v2 S2)) (=> (= (f14 f51 ?v0) f1) (=> (= (f3 (f11 f12 ?v1) ?v2) f1) (= (f23 (f24 f25 (f3 ?v0 ?v1)) (f3 ?v0 ?v2)) f1)))))
(assert (forall ((?v0 S6) (?v1 S2) (?v2 S2)) (=> (= (f52 f53 ?v0) f1) (=> (= (f3 (f11 f12 ?v1) ?v2) f1) (= (f14 (f21 f22 (f11 ?v0 ?v1)) (f11 ?v0 ?v2)) f1)))))
(assert (forall ((?v0 S17) (?v1 S2) (?v2 S2)) (=> (= (f49 f50 ?v0) f1) (= (= (f26 (f27 f28 (f36 ?v0 ?v1)) (f36 ?v0 ?v2)) f1) (= (f3 (f11 f12 ?v1) ?v2) f1)))))
(assert (forall ((?v0 S3) (?v1 S2) (?v2 S2)) (=> (= (f14 f51 ?v0) f1) (= (= (f23 (f24 f25 (f3 ?v0 ?v1)) (f3 ?v0 ?v2)) f1) (= (f3 (f11 f12 ?v1) ?v2) f1)))))
(assert (forall ((?v0 S6) (?v1 S2) (?v2 S2)) (=> (= (f52 f53 ?v0) f1) (= (= (f14 (f21 f22 (f11 ?v0 ?v1)) (f11 ?v0 ?v2)) f1) (= (f3 (f11 f12 ?v1) ?v2) f1)))))
(assert (= f29 (f54 f55 f8)))
(assert (forall ((?v0 S3) (?v1 S2)) (= (= (f3 (f5 f41 ?v0) ?v1) f1) (forall ((?v2 S2)) (=> (= (f14 (f15 f16 ?v2) ?v0) f1) (= (f3 (f11 f42 ?v2) ?v1) f1))))))
(assert (forall ((?v0 S2)) (= (f3 (f11 f42 ?v0) ?v0) f1)))
(assert (forall ((?v0 S2) (?v1 S2) (?v2 S2)) (=> (= (f3 (f11 f42 (f30 (f31 f32 ?v0) ?v1)) ?v2) f1) (=> (=> (= (f3 (f11 f42 ?v0) ?v2) f1) (=> (= (f3 (f11 f42 ?v1) ?v2) f1) false)) false))))
(assert (forall ((?v0 S2) (?v1 S2) (?v2 S2)) (let ((?v_0 (f11 f42 ?v0))) (=> (= (f3 ?v_0 (f30 (f31 f33 ?v1) ?v2)) f1) (=> (=> (= (f3 ?v_0 ?v1) f1) (=> (= (f3 ?v_0 ?v2) f1) false)) false)))))
(assert (forall ((?v0 S2) (?v1 S2) (?v2 S2) (?v3 S2)) (=> (= (f3 (f11 f42 ?v0) ?v1) f1) (=> (= (f3 (f11 f42 ?v2) ?v3) f1) (= (f3 (f11 f42 (f30 (f31 f33 ?v0) ?v2)) (f30 (f31 f33 ?v1) ?v3)) f1)))))
(assert (forall ((?v0 S2) (?v1 S2) (?v2 S2) (?v3 S2)) (=> (= (f3 (f11 f42 ?v0) ?v1) f1) (=> (= (f3 (f11 f42 ?v2) ?v3) f1) (= (f3 (f11 f42 (f30 (f31 f32 ?v0) ?v2)) (f30 (f31 f32 ?v1) ?v3)) f1)))))
(assert (forall ((?v0 S2) (?v1 S2) (?v2 S2)) (=> (= (f3 (f11 f42 ?v0) ?v1) f1) (=> (= (f3 (f11 f42 ?v2) ?v1) f1) (= (f3 (f11 f42 (f30 (f31 f32 ?v0) ?v2)) ?v1) f1)))))
(assert (forall ((?v0 S2) (?v1 S2) (?v2 S2)) (=> (= (f3 (f11 f42 ?v0) ?v1) f1) (=> (= (f3 (f11 f42 ?v2) ?v1) f1) (= (f3 (f11 f42 (f30 (f31 f32 ?v0) ?v2)) ?v1) f1)))))
(assert (forall ((?v0 S2) (?v1 S2) (?v2 S2)) (let ((?v_0 (f11 f42 ?v0))) (=> (= (f3 ?v_0 ?v1) f1) (=> (= (f3 ?v_0 ?v2) f1) (= (f3 ?v_0 (f30 (f31 f33 ?v1) ?v2)) f1))))))
(assert (forall ((?v0 S2) (?v1 S2) (?v2 S2)) (let ((?v_0 (f11 f42 ?v0))) (=> (= (f3 ?v_0 ?v1) f1) (=> (= (f3 ?v_0 ?v2) f1) (= (f3 ?v_0 (f30 (f31 f33 ?v1) ?v2)) f1))))))
(assert (forall ((?v0 S2) (?v1 S2)) (=> (= (f3 (f11 f42 ?v0) ?v1) f1) (= (f30 (f31 f33 ?v1) ?v0) ?v0))))
(assert (forall ((?v0 S2) (?v1 S2)) (=> (= (f3 (f11 f42 ?v0) ?v1) f1) (= (f30 (f31 f32 ?v1) ?v0) ?v1))))
(assert (forall ((?v0 S2) (?v1 S2)) (=> (= (f3 (f11 f42 ?v0) ?v1) f1) (= (f30 (f31 f33 ?v0) ?v1) ?v0))))
(assert (forall ((?v0 S2) (?v1 S2)) (=> (= (f3 (f11 f42 ?v0) ?v1) f1) (= (f30 (f31 f32 ?v0) ?v1) ?v1))))
(assert (forall ((?v0 S2) (?v1 S2) (?v2 S2)) (=> (= (f3 (f11 f42 ?v0) ?v1) f1) (= (f3 (f11 f42 (f30 (f31 f33 ?v2) ?v0)) ?v1) f1))))
(assert (forall ((?v0 S2) (?v1 S2) (?v2 S2)) (=> (= (f3 (f11 f42 ?v0) ?v1) f1) (= (f3 (f11 f42 (f30 (f31 f33 ?v0) ?v2)) ?v1) f1))))
(assert (forall ((?v0 S2) (?v1 S2) (?v2 S2)) (let ((?v_0 (f11 f42 ?v0))) (=> (= (f3 ?v_0 ?v1) f1) (= (f3 ?v_0 (f30 (f31 f32 ?v2) ?v1)) f1)))))
(assert (forall ((?v0 S2) (?v1 S2) (?v2 S2)) (let ((?v_0 (f11 f42 ?v0))) (=> (= (f3 ?v_0 ?v1) f1) (= (f3 ?v_0 (f30 (f31 f32 ?v1) ?v2)) f1)))))
(assert (forall ((?v0 S2) (?v1 S2) (?v2 S2)) (let ((?v_0 (f31 f33 ?v0))) (= (f3 (f11 f42 (f30 (f31 f32 (f30 ?v_0 ?v1)) (f30 ?v_0 ?v2))) (f30 ?v_0 (f30 (f31 f32 ?v1) ?v2))) f1))))
(assert (forall ((?v0 S2) (?v1 S2) (?v2 S2)) (= (= (f3 (f11 f42 (f30 (f31 f32 ?v0) ?v1)) ?v2) f1) (and (= (f3 (f11 f42 ?v0) ?v2) f1) (= (f3 (f11 f42 ?v1) ?v2) f1)))))
(assert (forall ((?v0 S2) (?v1 S2) (?v2 S2)) (let ((?v_0 (f31 f32 ?v0))) (= (f3 (f11 f42 (f30 ?v_0 (f30 (f31 f33 ?v1) ?v2))) (f30 (f31 f33 (f30 ?v_0 ?v1)) (f30 ?v_0 ?v2))) f1))))
(assert (forall ((?v0 S2) (?v1 S2) (?v2 S2)) (let ((?v_0 (f11 f42 ?v0))) (= (= (f3 ?v_0 (f30 (f31 f33 ?v1) ?v2)) f1) (and (= (f3 ?v_0 ?v1) f1) (= (f3 ?v_0 ?v2) f1))))))
(assert (forall ((?v0 S2) (?v1 S2)) (= (= (f3 (f11 f42 ?v0) ?v1) f1) (= (f30 (f31 f33 ?v0) ?v1) ?v0))))
(assert (forall ((?v0 S2) (?v1 S2)) (= (= (f3 (f11 f42 ?v0) ?v1) f1) (= (f30 (f31 f32 ?v0) ?v1) ?v1))))
(assert (forall ((?v0 S2) (?v1 S2)) (= (f3 (f11 f42 (f30 (f31 f33 ?v0) ?v1)) ?v1) f1)))
(assert (forall ((?v0 S2) (?v1 S2)) (= (f3 (f11 f42 (f30 (f31 f33 ?v0) ?v1)) ?v0) f1)))
(assert (forall ((?v0 S2) (?v1 S2)) (= (f3 (f11 f42 ?v0) (f30 (f31 f32 ?v1) ?v0)) f1)))
(assert (forall ((?v0 S2) (?v1 S2)) (= (f3 (f11 f42 ?v0) (f30 (f31 f32 ?v0) ?v1)) f1)))
(assert (forall ((?v0 S6) (?v1 S2) (?v2 S2)) (=> (= (f52 f53 ?v0) f1) (= (= (f11 ?v0 ?v1) (f11 ?v0 ?v2)) (= ?v1 ?v2)))))
(assert (forall ((?v0 S2) (?v1 S2)) (=> (=> (= (f3 (f11 f42 ?v0) ?v1) f1) false) (=> (=> (= (f3 (f11 f42 ?v1) ?v0) f1) false) false))))
(assert (forall ((?v0 S2) (?v1 S2) (?v2 S2)) (let ((?v_0 (f11 f42 ?v2))) (=> (= (f3 (f11 f42 ?v0) ?v1) f1) (=> (= (f3 ?v_0 ?v0) f1) (= (f3 ?v_0 ?v1) f1))))))
(assert (forall ((?v0 S2) (?v1 S2)) (=> (= (f3 (f11 f42 ?v0) ?v1) f1) (=> (= (f3 (f11 f42 ?v1) ?v0) f1) (= ?v1 ?v0)))))
(assert (forall ((?v0 S2) (?v1 S2) (?v2 S2)) (let ((?v_0 (f11 f42 ?v0))) (=> (= (f3 ?v_0 ?v1) f1) (=> (= (f3 (f11 f42 ?v1) ?v2) f1) (= (f3 ?v_0 ?v2) f1))))))
(assert (forall ((?v0 S2) (?v1 S2)) (=> (= (f3 (f11 f42 ?v0) ?v1) f1) (=> (= (f3 (f11 f42 ?v1) ?v0) f1) (= ?v0 ?v1)))))
(assert (forall ((?v0 S2) (?v1 S2) (?v2 S2)) (=> (= (f3 (f11 f42 ?v0) ?v1) f1) (=> (= ?v0 ?v2) (= (f3 (f11 f42 ?v2) ?v1) f1)))))
(assert (forall ((?v0 S2) (?v1 S2) (?v2 S2)) (let ((?v_0 (f11 f42 ?v0))) (=> (= (f3 ?v_0 ?v1) f1) (=> (= ?v1 ?v2) (= (f3 ?v_0 ?v2) f1))))))
(assert (forall ((?v0 S2) (?v1 S2) (?v2 S2)) (let ((?v_0 (f11 f42 ?v2))) (=> (= ?v0 ?v1) (=> (= (f3 ?v_0 ?v1) f1) (= (f3 ?v_0 ?v0) f1))))))
(assert (forall ((?v0 S2) (?v1 S2) (?v2 S2)) (=> (= ?v0 ?v1) (=> (= (f3 (f11 f42 ?v1) ?v2) f1) (= (f3 (f11 f42 ?v0) ?v2) f1)))))
(check-sat)
(exit)
